unsat
(define-fun SC ((s (_ BitVec 4)) (t (_ BitVec 4))) Bool (bvult (bvlshr t s) #b1111))
1.38user 0.02system 0:01.40elapsed 99%CPU (0avgtext+0avgdata 38964maxresident)k
8inputs+8outputs (0major+4336minor)pagefaults 0swaps
